12
PBE0-D4/def2-TZVP | ORCA 6.1.0 | E=-232.054463059158 Eh | minimum (0 imaginary modes)
C  0.00000025 -0.00000043 -0.01243340
C  0.00000097  1.20153435 -0.70624825
C -0.00000023  1.20153506 -2.09375242
C  0.00000130 -0.00000031 -2.78756620
C  0.00000110 -1.20153468 -2.09375191
C  0.00000021 -1.20153467 -0.70624787
H  0.00000103  0.00000041  1.07164880
H  0.00000043  2.14059169 -0.16456710
H -0.00000225  2.14059226 -2.63543265
H -0.00000068 -0.00000034 -3.87164868
H  0.00000148 -2.14059153 -2.63543331
H -0.00000361 -2.14059180 -0.16456701
