18
PBE0-D4/def2-TZVP | ORCA 6.1.0 | E=-235.680071957074 Eh | minimum (0 imaginary modes)
C -0.04330223 -1.45183549 -0.22901872
C  1.23569571 -0.76337313  0.22901495
C  1.27895514  0.68848795 -0.22904877
C  0.04325528  1.45185693  0.22915133
C -1.23569291  0.76338290 -0.22909444
C -1.27900517 -0.68841480  0.22908007
H -0.04518920 -1.51369595 -1.32478566
H -0.07397058 -2.48147938  0.14001710
H  1.28833810 -0.79584187  1.32478239
H  2.11201951 -1.30480064 -0.14004438
H  2.18607258  1.17668582  0.13986770
H  1.33332095  0.71780055 -1.32482237
H  0.04509774  1.51334013  1.32494061
H  0.07394806  2.48155632 -0.13969635
H -1.28795706  0.79573147 -1.32488831
H -2.11210462  1.30488481  0.13962674
H -2.18606388 -1.17672452 -0.13983440
H -1.33341744 -0.71766110  1.32485249
