11
PBE0-D4/def2-TZVP | toluene CH3 cap removed | ORCA 6.1.0 | parent minimum (0 imaginary modes)
C 0.00000000 0.00000000 0.00000000
C -0.01180028 1.19421989 -0.71493779
C -0.04167368 1.19731626 -2.10101021
C -0.05815597 -0.00010468 -2.80036117
C -0.04223266 -1.19749071 -2.10089425
C -0.01235288 -1.19429552 -0.71484637
H 0.00523249 2.13634918 -0.17615192
H -0.04809705 2.13956198 -2.63736740
H -0.07849551 -0.00015474 -3.88395905
H -0.04909643 -2.13977412 -2.63717772
H 0.00424710 -2.13639300 -0.17598392
