11
PBE0-D4/def2-TZVP | ORCA 6.1.0 | E=-248.084216000531 Eh | minimum (0 imaginary modes)
C -0.00000163  0.02231618 -0.07681034
N -0.00000134  1.18796292 -0.71388836
C  0.00000072  1.15704678 -2.04190433
C  0.00000139 -0.01543190 -2.78349748
C  0.00000138 -1.22369866 -2.10647267
C  0.00000018 -1.20608239 -0.72157093
H -0.00000101  2.12134852 -2.54297201
H  0.00000036  0.02316019 -3.86613351
H -0.00000134 -2.16254401 -2.64860868
H -0.00000092 -2.12447205 -0.14697742
H  0.00000221  0.07039443  1.00883573
