13
PBE0-D4/def2-TZVP | neopentane CH3 cap removed | ORCA 6.1.0 | parent minimum (0 imaginary modes)
C 0.00000000 0.00000000 0.00000000
C 0.53349946 1.33615764 -0.50882748
C -1.42393059 -0.20615548 -0.50865793
C 0.89049438 -1.13013379 -0.50860418
H 0.54471905 1.36412122 -1.60209157
H 1.55486141 1.51053868 -0.15873479
H -0.08692278 2.16602924 -0.15877833
H -1.83231560 -1.15841475 -0.15853669
H -2.08562622 0.59115354 -0.15850718
H -1.45392683 -0.21048554 -1.60192289
H 1.91932038 -1.00769675 -0.15835886
H 0.90935825 -1.15392293 -1.60186883
H 0.53077446 -2.10181845 -0.15849285
