18
Cyclohexane chair starting geometry | PubChem CID 8078 conformer 00001F8E00000001
C -0.043500 -1.457300 -0.225800
C  1.240400 -0.766300  0.225800
C -1.283800 -0.691000  0.225800
C  1.283800  0.691100 -0.225700
C -1.240400  0.766200 -0.225800
C  0.043500  1.457300  0.225800
H -0.046000 -1.542500 -1.319400
H -0.073900 -2.477100  0.174100
H  1.312900 -0.811100  1.319400
H  2.108300 -1.302600 -0.174200
H -2.182100 -1.174600 -0.174100
H -1.358800 -0.731400  1.319500
H  2.182100  1.174600  0.174200
H  1.359000  0.731500 -1.319400
H -1.312900  0.811000 -1.319500
H -2.108300  1.302500  0.174100
H  0.045900  1.542500  1.319500
H  0.073800  2.477100 -0.174200
